
Gurobi 12.0.2 (mac64[arm]) logging started Fri Jun 13 23:56:53 2025

Set parameter LogFile to value "/Users/yurunfeng/Documents/GitHub/LRGTS-store-location/result/gurobi/snyder/15nodes/15-0.95-3.log"
Gurobi Optimizer version 12.0.2 build v12.0.2rc0 (mac64[arm] - Darwin 24.5.0 24F74)

CPU model: Apple M4
Thread count: 10 physical cores, 10 logical processors, using up to 10 threads

Non-default parameters:
TimeLimit  1200

Optimize a model with 4785 rows, 7245 columns and 33600 nonzeros
Model fingerprint: 0x8993ed94
Variable types: 3615 continuous, 3630 integer (3630 binary)
Coefficient statistics:
  Matrix range     [5e-02, 1e+00]
  Objective range  [7e+03, 3e+06]
  Bounds range     [1e+00, 1e+00]
  RHS range        [1e+00, 3e+00]
Found heuristic solution: objective 1.648316e+07
Presolve removed 481 rows and 241 columns
Presolve time: 0.73s
Presolved: 4304 rows, 7004 columns, 29488 nonzeros
Variable types: 3374 continuous, 3630 integer (3630 binary)

Root relaxation: objective 7.024820e+05, 4085 iterations, 0.11 seconds (0.37 work units)

    Nodes    |    Current Node    |     Objective Bounds      |     Work
 Expl Unexpl |  Obj  Depth IntInf | Incumbent    BestBd   Gap | It/Node Time

     0     0 702481.951    0  189 1.6483e+07 702481.951  95.7%     -    0s
H    0     0                    1322959.0307 702481.951  46.9%     -    0s
H    0     0                    727989.25421 702481.951  3.50%     -    0s
H    0     0                    705496.81986 702481.951  0.43%     -    0s
H    0     0                    704312.54675 702481.951  0.26%     -    0s

Cutting planes:
  Implied bound: 2
  Flow cover: 23
  Zero half: 8
  RLT: 32

Explored 1 nodes (4086 simplex iterations) in 1.03 seconds (1.98 work units)
Thread count was 10 (of 10 available processors)

Solution count 5: 704313 705497 727989 ... 1.64832e+07

Optimal solution found (tolerance 1.00e-04)
Best objective 7.043125467500e+05, best bound 7.042957021925e+05, gap 0.0024%
